*SENSE:Maximize
NAME          MODEL
ROWS
 N  OBJ
 L  C0000000
 L  C0000001
 L  C0000002
 L  C0000003
 L  C0000004
 L  C0000005
 L  C0000006
COLUMNS
    X0000000  C0000000   1.000000000000e+00
    X0000000  C0000006   4.176202247954e-02
    X0000000  OBJ        7.736416320000e+02
    X0000001  C0000001   1.000000000000e+00
    X0000001  C0000002   1.000000000000e+00
    X0000001  C0000006   1.054303276879e-03
    X0000001  OBJ        1.953097238400e+01
    X0000002  C0000003   1.000000000000e+00
    X0000002  C0000004   1.000000000000e+00
    X0000002  C0000006   2.184725194678e-02
    X0000002  OBJ        7.355325056000e+02
    X0000003  C0000005   1.000000000000e+00
    X0000003  C0000006   6.267555356932e-02
    X0000003  OBJ        2.110100944000e+03
    MARK      'MARKER'                 'INTORG'
    X0000004  C0000000  -1.000000000000e+00
    X0000004  C0000001  -1.000000000000e+00
    X0000004  C0000004   1.000000000000e+00
    X0000004  OBJ       -4.179417184249e+01
    MARK      'MARKER'                 'INTEND'
    MARK      'MARKER'                 'INTORG'
    X0000005  C0000002   1.000000000000e+00
    X0000005  C0000003  -1.000000000000e+00
    X0000005  C0000005  -1.000000000000e+00
    X0000005  OBJ       -6.273448094973e+01
    MARK      'MARKER'                 'INTEND'
RHS
    RHS       C0000000   0.000000000000e+00
    RHS       C0000001   0.000000000000e+00
    RHS       C0000002   1.000000000000e+00
    RHS       C0000003   0.000000000000e+00
    RHS       C0000004   1.000000000000e+00
    RHS       C0000005   0.000000000000e+00
    RHS       C0000006   2.380000000000e+01
BOUNDS
 BV BND       X0000004
 BV BND       X0000005
ENDATA
